0 19 19 2 2 16 16 17 11 1
13 0 14 2 11 10 14 9 13 18
7 19 0 4 7 15 13 12 12 19
6 19 7 0 10 10 18 13 15 10
19 5 1 12 0 4 14 5 11 6
13 16 10 14 15 0 5 9 4 12
14 6 18 16 3 13 0 13 1 5
1 17 3 16 12 15 7 0 16 9
7 9 18 13 3 6 9 8 0 9
1 17 14 17 10 3 10 11 11 0
